nK = 892;
nT = 4;
nI = 7;
L = 35;
TT = 190;
np = 1;
nc = 3;
b = [46, 48, 37, 45, 20, 63, 35];
d = [134, 113, 58, 93, 131, 143, 140];
m = [1.2, 1.2, 1.4, 1.5, 2, 2.2, 1.3];
pt = [0.34, 0.2, 0.31, 0.32];
st = [19.04, 11.6, 18.6, 17.92];
arc = {<1, 0, 1, 1, 0, 0, 0, [1, 1, 1, 1]>, <2, 1, 2, 1, 0, 0, 0, [1, 1, 1, 1]>, <3, 2, 3, 1, 0, 0, 0, [1, 1, 1, 1]>, <4, 3, 4, 1, 0, 0, 0, [1, 1, 1, 1]>, <5, 4, 5, 1, 0, 0, 0, [1, 1, 1, 1]>, <6, 5, 6, 1, 0, 0, 0, [1, 1, 1, 1]>, <7, 6, 7, 1, 0, 0, 0, [1, 1, 1, 1]>, <8, 7, 8, 1, 0, 0, 0, [1, 1, 1, 1]>, <9, 8, 9, 1, 0, 0, 0, [1, 1, 1, 1]>, <10, 9, 10, 1, 0, 0, 0, [1, 1, 1, 1]>, <11, 10, 11, 1, 0, 0, 0, [1, 1, 1, 1]>, <12, 11, 12, 1, 0, 0, 0, [1, 1, 1, 1]>, <13, 12, 13, 1, 0, 0, 0, [1, 1, 1, 1]>, <14, 13, 14, 1, 0, 0, 0, [1, 1, 1, 1]>, <15, 14, 15, 1, 0, 0, 0, [1, 1, 1, 1]>, <16, 15, 16, 1, 0, 0, 0, [1, 1, 1, 1]>, <17, 16, 17, 1, 0, 0, 0, [1, 1, 1, 1]>, <18, 17, 18, 1, 0, 0, 0, [1, 1, 1, 1]>, <19, 18, 19, 1, 0, 0, 0, [1, 1, 1, 1]>, <20, 19, 20, 1, 0, 0, 0, [1, 1, 1, 1]>, <21, 20, 21, 1, 0, 0, 0, [1, 1, 1, 1]>, <22, 21, 22, 1, 0, 0, 0, [1, 1, 1, 1]>, <23, 22, 23, 1, 0, 0, 0, [1, 1, 1, 1]>, <24, 23, 24, 1, 0, 0, 0, [1, 1, 1, 1]>, <25, 24, 25, 1, 0, 0, 0, [1, 1, 1, 1]>, <26, 25, 26, 1, 0, 0, 0, [1, 1, 1, 1]>, <27, 26, 27, 1, 0, 0, 0, [1, 1, 1, 1]>, <28, 27, 28, 1, 0, 0, 0, [1, 1, 1, 1]>, <29, 28, 29, 1, 0, 0, 0, [1, 1, 1, 1]>, <30, 29, 30, 1, 0, 0, 0, [1, 1, 1, 1]>, <31, 30, 31, 1, 0, 0, 0, [1, 1, 1, 1]>, <32, 31, 32, 1, 0, 0, 0, [1, 1, 1, 1]>, <33, 32, 33, 1, 0, 0, 0, [1, 1, 1, 1]>, <34, 33, 34, 1, 0, 0, 0, [1, 1, 1, 1]>, <35, 34, 35, 1, 0, 0, 0, [1, 1, 1, 1]>, <36, 0, 18, 18, 1, 0, 1, [0, 0, 1, 1]>, <37, 1, 19, 18, 1, 0, 1, [0, 0, 1, 1]>, <38, 2, 20, 18, 1, 0, 1, [0, 0, 1, 1]>, <39, 3, 21, 18, 1, 0, 1, [0, 0, 1, 1]>, <40, 4, 22, 18, 1, 0, 1, [0, 0, 1, 1]>, <41, 5, 23, 18, 1, 0, 1, [0, 0, 1, 1]>, <42, 6, 24, 18, 1, 0, 1, [0, 0, 1, 1]>, <43, 8, 26, 18, 1, 0, 1, [0, 0, 1, 1]>, <44, 9, 27, 18, 1, 0, 1, [0, 0, 1, 1]>, <45, 10, 28, 18, 1, 0, 1, [0, 0, 1, 1]>, <46, 11, 29, 18, 1, 0, 1, [0, 0, 1, 1]>, <47, 12, 30, 18, 1, 0, 1, [0, 0, 1, 1]>, <48, 13, 31, 18, 1, 0, 1, [0, 0, 1, 1]>, <49, 14, 32, 18, 1, 0, 1, [0, 0, 1, 1]>, <50, 15, 33, 18, 1, 0, 1, [0, 0, 1, 1]>, <51, 16, 34, 18, 1, 0, 1, [0, 0, 1, 1]>, <52, 17, 35, 18, 1, 0, 1, [0, 0, 1, 1]>, <53, 4, 17, 13, 2, 0, 0, [1, 1, 0, 0]>, <54, 5, 18, 13, 2, 0, 0, [1, 1, 0, 0]>, <55, 6, 19, 13, 2, 0, 0, [1, 1, 0, 0]>, <56, 13, 26, 13, 2, 0, 0, [1, 1, 0, 0]>, <57, 14, 27, 13, 2, 0, 0, [1, 1, 0, 0]>, <58, 15, 28, 13, 2, 0, 0, [1, 1, 0, 0]>, <59, 18, 31, 13, 2, 0, 0, [1, 1, 0, 0]>, <60, 19, 32, 13, 2, 0, 0, [1, 1, 0, 0]>, <61, 20, 33, 13, 2, 0, 0, [1, 1, 0, 0]>, <62, 21, 34, 13, 2, 0, 0, [1, 1, 0, 0]>, <63, 22, 35, 13, 2, 0, 0, [1, 1, 0, 0]>, <64, 0, 17, 17, 3, 0, 0, [0, 1, 1, 0]>, <65, 1, 18, 17, 3, 0, 0, [0, 1, 1, 0]>, <66, 2, 19, 17, 3, 0, 0, [0, 1, 1, 0]>, <67, 3, 20, 17, 3, 0, 0, [0, 1, 1, 0]>, <68, 4, 21, 17, 3, 0, 0, [0, 1, 1, 0]>, <69, 5, 22, 17, 3, 0, 0, [0, 1, 1, 0]>, <70, 6, 23, 17, 3, 0, 0, [0, 1, 1, 0]>, <71, 9, 26, 17, 3, 0, 0, [0, 1, 1, 0]>, <72, 10, 27, 17, 3, 0, 0, [0, 1, 1, 0]>, <73, 11, 28, 17, 3, 0, 0, [0, 1, 1, 0]>, <74, 12, 29, 17, 3, 0, 0, [0, 1, 1, 0]>, <75, 13, 30, 17, 3, 0, 0, [0, 1, 1, 0]>, <76, 14, 31, 17, 3, 0, 0, [0, 1, 1, 0]>, <77, 15, 32, 17, 3, 0, 0, [0, 1, 1, 0]>, <78, 16, 33, 17, 3, 0, 0, [0, 1, 1, 0]>, <79, 17, 34, 17, 3, 0, 0, [0, 1, 1, 0]>, <80, 18, 35, 17, 3, 0, 0, [0, 1, 1, 0]>, <81, 3, 17, 14, 4, 0, 1, [0, 1, 1, 0]>, <82, 4, 18, 14, 4, 0, 1, [0, 1, 1, 0]>, <83, 5, 19, 14, 4, 0, 1, [0, 1, 1, 0]>, <84, 6, 20, 14, 4, 0, 1, [0, 1, 1, 0]>, <85, 12, 26, 14, 4, 0, 1, [0, 1, 1, 0]>, <86, 13, 27, 14, 4, 0, 1, [0, 1, 1, 0]>, <87, 14, 28, 14, 4, 0, 1, [0, 1, 1, 0]>, <88, 15, 29, 14, 4, 0, 1, [0, 1, 1, 0]>, <89, 17, 31, 14, 4, 0, 1, [0, 1, 1, 0]>, <90, 18, 32, 14, 4, 0, 1, [0, 1, 1, 0]>, <91, 19, 33, 14, 4, 0, 1, [0, 1, 1, 0]>, <92, 20, 34, 14, 4, 0, 1, [0, 1, 1, 0]>, <93, 21, 35, 14, 4, 0, 1, [0, 1, 1, 0]>, <94, 2, 17, 15, 5, 0, 1, [0, 1, 1, 0]>, <95, 3, 18, 15, 5, 0, 1, [0, 1, 1, 0]>, <96, 4, 19, 15, 5, 0, 1, [0, 1, 1, 0]>, <97, 5, 20, 15, 5, 0, 1, [0, 1, 1, 0]>, <98, 6, 21, 15, 5, 0, 1, [0, 1, 1, 0]>, <99, 11, 26, 15, 5, 0, 1, [0, 1, 1, 0]>, <100, 12, 27, 15, 5, 0, 1, [0, 1, 1, 0]>, <101, 13, 28, 15, 5, 0, 1, [0, 1, 1, 0]>, <102, 14, 29, 15, 5, 0, 1, [0, 1, 1, 0]>, <103, 15, 30, 15, 5, 0, 1, [0, 1, 1, 0]>, <104, 16, 31, 15, 5, 0, 1, [0, 1, 1, 0]>, <105, 17, 32, 15, 5, 0, 1, [0, 1, 1, 0]>, <106, 18, 33, 15, 5, 0, 1, [0, 1, 1, 0]>, <107, 19, 34, 15, 5, 0, 1, [0, 1, 1, 0]>, <108, 20, 35, 15, 5, 0, 1, [0, 1, 1, 0]>, <109, 4, 17, 13, 6, 0, 1, [0, 1, 1, 0]>, <110, 5, 18, 13, 6, 0, 1, [0, 1, 1, 0]>, <111, 6, 19, 13, 6, 0, 1, [0, 1, 1, 0]>, <112, 13, 26, 13, 6, 0, 1, [0, 1, 1, 0]>, <113, 14, 27, 13, 6, 0, 1, [0, 1, 1, 0]>, <114, 15, 28, 13, 6, 0, 1, [0, 1, 1, 0]>, <115, 18, 31, 13, 6, 0, 1, [0, 1, 1, 0]>, <116, 19, 32, 13, 6, 0, 1, [0, 1, 1, 0]>, <117, 20, 33, 13, 6, 0, 1, [0, 1, 1, 0]>, <118, 21, 34, 13, 6, 0, 1, [0, 1, 1, 0]>, <119, 22, 35, 13, 6, 0, 1, [0, 1, 1, 0]>, <120, 1, 17, 16, 7, 1, 0, [1, 0, 0, 1]>, <121, 2, 18, 16, 7, 1, 0, [1, 0, 0, 1]>, <122, 3, 19, 16, 7, 1, 0, [1, 0, 0, 1]>, <123, 4, 20, 16, 7, 1, 0, [1, 0, 0, 1]>, <124, 5, 21, 16, 7, 1, 0, [1, 0, 0, 1]>, <125, 6, 22, 16, 7, 1, 0, [1, 0, 0, 1]>, <126, 10, 26, 16, 7, 1, 0, [1, 0, 0, 1]>, <127, 11, 27, 16, 7, 1, 0, [1, 0, 0, 1]>, <128, 12, 28, 16, 7, 1, 0, [1, 0, 0, 1]>, <129, 13, 29, 16, 7, 1, 0, [1, 0, 0, 1]>, <130, 14, 30, 16, 7, 1, 0, [1, 0, 0, 1]>, <131, 15, 31, 16, 7, 1, 0, [1, 0, 0, 1]>, <132, 16, 32, 16, 7, 1, 0, [1, 0, 0, 1]>, <133, 17, 33, 16, 7, 1, 0, [1, 0, 0, 1]>, <134, 18, 34, 16, 7, 1, 0, [1, 0, 0, 1]>, <135, 19, 35, 16, 7, 1, 0, [1, 0, 0, 1]>};
